5 5
2 89 1 91 3 36 0 52 4 22
0 38 1 99 3 62 4 65 2 3
0 88 1 8 4 39 2 18 3 3
4 18 3 80 2 96 1 1 0 26
1 52 0 12 2 38 3 85 4 41
-1
0 1 2 4 5
0 2 3 4 5
0 2 3 4 5
0 3 4 5
0 2 3 5
-2
120 198 322 345
168 274 302 274
119 163 158 243
195 260 343
67 112 320

384 11
5 21 10 19 3
20 6 11 1 18
0 22 17 13 9
16 23 7 2 14
15 24 12 8 4
